32      10      
16      17      15      16      16      12      12      12      15      19      
0       0       0       0       0       0       0       0       0       0       0       1       2       
10      0       0       2       9       3       0       4       1       0       1       1       3       
2       2       3       0       0       10      6       2       5       0       0       1       4       
8       7       1       0       3       0       0       1       1       0       6       2       8       5       
1       2       13      0       0       12      1       4       0       1       0       1       6       
10      1       4       1       0       1       0       0       0       10      4       1       7       
5       7       1       1       1       0       0       0       1       0       1       1       9       
1       8       1       0       2       2       0       1       0       5       0       1       9       
9       7       0       2       0       1       0       1       0       5       15      2       15      10      
8       1       1       9       6       0       0       9       0       0       1       1       11      
4       3       1       2       7       0       1       6       0       0       0       2       25      12      
3       0       1       0       1       7       1       0       5       0       2       1       13      
3       0       0       1       0       2       1       1       4       1       0       1       14      
5       0       0       5       1       2       1       6       4       0       0       1       16      
1       3       0       1       1       0       7       0       0       1       1       1       16      
9       6       8       0       0       15      6       3       3       0       0       1       17      
3       0       1       0       4       1       6       0       6       1       0       2       23      18      
1       0       6       0       9       4       1       0       4       9       0       2       20      19      
9       0       0       7       5       1       1       0       0       1       8       1       21      
6       0       9       1       1       0       3       0       1       0       2       1       21      
9       0       0       4       0       0       5       1       1       6       2       1       22      
7       0       8       1       1       1       1       0       0       4       0       1       24      
5       2       0       0       0       6       0       1       1       1       3       1       24      
5       1       5       0       0       0       6       1       0       1       8       2       27      26      
8       0       0       1       6       1       0       0       8       2       7       2       27      26      
9       1       5       0       0       0       1       8       1       0       1       1       28      
3       0       8       9       0       2       0       0       2       6       19      1       28      
6       9       1       13      1       0       0       0       0       5       4       1       29      
4       7       0       0       0       1       3       1       3       8       0       1       30      
7       4       0       1       7       0       0       1       3       1       0       1       31      
5       1       0       7       7       0       3       3       0       0       1       1       32      
0       0       0       0       0       0       0       0       0       0       0       0       
